--- Job SetCoverB.gms Start 05/03/20 10:16:20 30.3.0 rc5da09e WEX-WEI x86 64bit/MS Windows
--- GAMS Parameters defined
    Input C:\aguadix\GITHUB\SOC\2MixedIntegerProgramming\3SetCover\SetCoverB\SetCoverB.gms
    PageSize 0
    ScrDir C:\aguadix\GITHUB\SOC\2MixedIntegerProgramming\3SetCover\SetCoverB\225a\
    SysDir C:\GAMS\win64\30.3\
    LogOption 3
    ErrMsg 1
    ErrorLog 99
    IDE 1
    LstTitleLeftAligned 1
GAMS 30.3.0   Copyright (C) 1987-2020 GAMS Development. All rights reserved
Licensee: GAMS Demo license for ANTONIO MARIA GUADIX ESCOG200420|0002CO-GEN
          UNIVERSITY OF GRANADA, Spain                             DL007289
          aguadix@ugr.es, ANTONIO MARIA GUADIX ESCOBAR                     
          Demo license for demonstration and instructional purposes only
--- Starting compilation
--- SetCoverB.gms(45) 3 Mb
--- Starting execution: elapsed 0:00:00.015
--- SetCoverB.gms(26) 4 Mb
--- Generating MIP model SetCoverB
--- SetCoverB.gms(43) 4 Mb
---   10 rows  10 columns  51 non-zeroes
---   9 discrete-columns
--- Executing CPLEX: elapsed 0:00:00.037

IBM ILOG CPLEX   30.3.0 rc5da09e Released Mar 06, 2020 WEI x86 64bit/MS Window
*** This solver runs with a demo license. No commercial use.
Cplex 12.10.0.0

Reading data...
Starting Cplex...
Space for names approximately 0.00 Mb
Use option 'names no' to turn use of names off
Version identifier: 12.10.0.0 | 2019-11-26 | 843d4de2ae
CPXPARAM_Advance                                 0
CPXPARAM_Simplex_Display                         2
CPXPARAM_Threads                                 1
CPXPARAM_Parallel                                1
CPXPARAM_MIP_Display                             4
CPXPARAM_Simplex_Limits_Iterations               2000000000
CPXPARAM_TimeLimit                               1000
CPXPARAM_Tune_TimeLimit                          200
CPXPARAM_MIP_Tolerances_AbsMIPGap                0
CPXPARAM_MIP_Tolerances_MIPGap                   0.10000000000000001
CPXPARAM_WorkDir                                 "C:\aguadix\GITHUB\SOC\2MixedIntegerProgramming\3SetCover\SetCoverB\225a\"
Found incumbent of value 4.000000 after 0.00 sec. (0.00 ticks)
Tried aggregator 1 time.
MIP Presolve eliminated 5 rows and 3 columns.
Reduced MIP has 5 rows, 7 columns, and 15 nonzeros.
Reduced MIP has 7 binaries, 0 generals, 0 SOSs, and 0 indicators.
Presolve time = 0.00 sec. (0.02 ticks)
Probing time = 0.00 sec. (0.00 ticks)
Tried aggregator 1 time.
Detecting symmetries...
Reduced MIP has 5 rows, 7 columns, and 15 nonzeros.
Reduced MIP has 7 binaries, 0 generals, 0 SOSs, and 0 indicators.
Presolve time = 0.00 sec. (0.01 ticks)
Probing time = 0.00 sec. (0.00 ticks)
MIP emphasis: balance optimality and feasibility.
MIP search method: dynamic search.
Parallel mode: none, using 1 thread.
Tried aggregator 1 time.
No LP presolve or aggregator reductions.
Presolve time = 0.02 sec. (0.00 ticks)

Iteration      Dual Objective            In Variable           Out Variable
     1               1.500000             x(Segovia)         R(Avila) slack
     2               2.000000          x(Valladolid)          R(Leon) slack
     3               2.500000                x(Leon)         R(Soria) slack
     4               3.000000               x(Soria)     R(Salamanca) slack
Root relaxation solution time = 0.02 sec. (0.01 ticks)

        Nodes                                         Cuts/
   Node  Left     Objective  IInf  Best Integer    Best Bound    ItCnt     Gap

*     0+    0                            4.0000        0.0000           100.00%
Found incumbent of value 4.000000 after 0.02 sec. (0.05 ticks)
*     0     0      integral     0        3.0000        3.0000        4    0.00%
Elapsed time = 0.02 sec. (0.05 ticks, tree = 0.00 MB, solutions = 1)
Found incumbent of value 3.000000 after 0.02 sec. (0.05 ticks)

Root node processing (before b&c):
  Real time             =    0.02 sec. (0.05 ticks)
Sequential b&c:
  Real time             =    0.00 sec. (0.00 ticks)
                          ------------
Total (root+branch&cut) =    0.02 sec. (0.05 ticks)
MIP status(101): integer optimal solution
Cplex Time: 0.02sec (det. 0.05 ticks)
Fixing integer variables, and solving final LP...
Version identifier: 12.10.0.0 | 2019-11-26 | 843d4de2ae
CPXPARAM_Advance                                 2
CPXPARAM_Simplex_Display                         2
CPXPARAM_Threads                                 1
CPXPARAM_Parallel                                1
CPXPARAM_MIP_Display                             4
CPXPARAM_Simplex_Limits_Iterations               2000000000
CPXPARAM_TimeLimit                               1000
CPXPARAM_Tune_TimeLimit                          200
CPXPARAM_MIP_Tolerances_AbsMIPGap                0
CPXPARAM_MIP_Tolerances_MIPGap                   0.10000000000000001
CPXPARAM_WorkDir                                 "C:\aguadix\GITHUB\SOC\2MixedIntegerProgramming\3SetCover\SetCoverB\225a\"
Tried aggregator 1 time.
LP Presolve eliminated 10 rows and 10 columns.
All rows and columns eliminated.
Presolve time = 0.00 sec. (0.00 ticks)
Fixed MIP status(1): optimal
Cplex Time: 0.00sec (det. 0.01 ticks)

Proven optimal solution.

MIP Solution:            3.000000    (4 iterations, 0 nodes)
Final Solve:             3.000000    (0 iterations)

Best possible:           3.000000
Absolute gap:            0.000000
Relative gap:            0.000000

--- Restarting execution
--- SetCoverB.gms(43) 2 Mb
--- Reading solution for model SetCoverB
*** Status: Normal completion
--- Job SetCoverB.gms Stop 05/03/20 10:16:20 elapsed 0:00:00.160
